import Controller.dzn;
import ILED.dzn;

component AlarmSystem {
	provides IController iController;
	
	system {
		Controller controller;
		LED led;
		
		iController <=> controller.iController;
		controller.iLed <=> led.iLed;
	}
}
